25 100
  0     40.0     50.0       0.0      240.0      0.0       0.0       0.0  
  1     25.0     85.0      49.0      191.0     10.0       8.0      20.0  
  2     22.0     75.0      30.0      168.0     10.0      24.0      30.0  
  3     22.0     85.0      95.0      152.0     10.0       3.0      10.0  
  4     20.0     80.0      69.0      193.0     10.0      35.0      40.0  
  5     20.0     85.0      40.0      189.0     10.0       4.0      20.0  
  6     18.0     75.0      60.0      159.0     10.0      15.0      20.0  
  7     15.0     75.0      54.0      133.0     10.0      12.0      20.0  
  8     15.0     80.0      67.0      144.0     10.0       6.0      10.0  
  9     10.0     35.0      57.0      154.0     10.0      14.0      20.0  
 10     10.0     40.0      106.0     161.0     10.0       5.0      30.0  
 11      8.0     40.0      33.0      152.0     10.0      26.0      40.0  
 12      8.0     45.0      32.0      148.0     10.0       6.0      20.0  
 13      5.0     35.0      53.0      191.0     10.0       5.0      10.0  
 14      5.0     45.0      35.0      194.0     10.0       3.0      10.0  
 15      2.0     40.0      39.0      163.0     10.0       0.0      20.0  
 16      0.0     40.0      41.0      141.0     10.0       3.0      20.0  
 17      0.0     45.0      51.0      189.0     10.0      10.0      20.0  
 18     44.0      5.0      73.0      130.0     10.0       3.0      20.0  
 19     42.0     10.0      40.0      148.0     10.0      36.0      40.0  
 20     42.0     15.0      94.0      179.0     10.0       8.0      10.0  
 21     40.0      5.0      45.0      161.0     10.0       9.0      10.0  
 22     40.0     15.0      64.0      149.0     10.0       4.0      40.0  
 23     38.0      5.0      45.0      164.0     10.0      27.0      30.0  
 24     38.0     15.0      51.0      194.0     10.0       7.0      10.0  
 25     35.0      5.0      45.0      183.0     10.0       3.0      20.0  
